db/data/2429510979230571769815965219052002223250.z3.out
sat
-------------------
500.385449660
